

[NpcPos]	Flags	Index	PosX	PosY	Type	IsRangeCheck
0	0	1	202	33	7	0
1	0	2	218	43	7	0
2	0	3	209	61	7	0
3	0	4	249	26	7	0
4	0	5	252	33	7	0
5	0	6	225	65	7	0
6	0	7	232	89	7	0
7	0	8	243	88	7	0
8	0	9	232	106	7	0
9	0	10	240	111	7	0
10	0	11	161	49	7	0
11	0	12	160	43	7	0
12	0	13	162	33	7	0
13	0	14	168	24	7	0
14	0	15	183	36	7	0
15	0	16	188	22	7	0
16	0	17	180	12	7	0
17	0	18	172	3	7	0
18	0	19	160	17	7	0
19	0	21	238	53	7	0
20	0	22	225	84	7	0
21	0	23	215	90	7	0
22	0	24	231	116	7	0
23	0	25	244	109	7	0
24	0	26	136	114	7	0
25	0	27	171	51	7	0
26	0	28	189	28	7	0
27	0	29	160	92	7	0
28	0	31	211	33	7	0
29	0	32	229	31	7	0
30	0	33	213	43	7	0
31	0	34	216	54	7	0
32	0	35	229	31	7	0
33	0	36	243	58	7	0
34	0	37	217	64	7	0
35	0	38	206	87	7	0
36	0	39	250	88	7	0
37	0	50	0	0	1	0
38	0	51	0	0	1	0
39	0	71	190	67	7	0
40	0	72	179	49	7	0
41	0	73	152	29	7	0
42	0	74	150	22	7	0
43	0	75	167	36	7	0
44	0	76	181	23	7	0
45	0	77	189	23	7	0
46	0	78	161	12	7	0
47	0	79	161	12	7	0
48	0	80	137	4	7	0
49	0	81	157	69	7	0
50	0	82	140	92	7	0
51	0	83	146	81	7	0
52	0	84	219	36	7	0
53	0	85	225	53	7	0
54	0	86	234	53	7	0
55	0	87	212	73	7	0
56	0	88	221	54	7	0
57	0	89	230	54	7	0
58	0	90	203	52	7	0
59	0	91	208	54	7	0
60	0	92	243	71	7	0
61	0	93	234	36	7	0
62	0	94	145	112	7	0
63	0	95	218	36	7	0
64	0	96	242	49	7	0
65	0	97	232	44	7	0
66	0	98	226	39	7	0
67	0	99	235	27	7	0
68	0	101	241	32	7	0
69	0	102	251	56	7	0
70	0	103	223	96	7	0
71	0	104	216	96	7	0
72	0	105	213	111	7	0
73	0	106	210	118	7	0
74	0	107	147	42	7	0
75	0	108	142	38	7	0
76	0	109	134	54	7	0
77	0	110	134	57	7	0
78	0	111	181	16	7	0
79	0	112	181	19	7	0
80	0	113	181	26	7	0
81	0	114	181	29	7	0
82	0	115	149	49	7	0
83	0	116	172	24	7	0
84	0	117	172	36	7	0
85	0	118	177	38	7	0
86	0	119	187	96	7	0
87	0	120	150	64	7	0
88	0	121	200	8	7	0
89	0	122	196	108	7	0
90	0	123	187	112	7	0
91	0	124	177	108	7	0
92	0	125	169	85	7	0
93	0	126	245	121	7	0
94	0	127	161	112	7	0
95	0	128	194	89	6	0
96	0	129	194	89	6	0
97	0	130	194	89	6	0
98	0	131	194	89	6	0
99	0	132	194	89	6	0
100	0	133	194	89	6	0
101	0	134	194	89	6	0
102	0	135	194	89	6	0
103	0	136	194	89	6	0
104	0	137	194	89	6	0
105	0	138	194	89	6	0
106	0	139	194	89	6	0
107	0	140	194	89	6	0
108	0	141	194	89	6	0
109	0	142	194	89	6	0
110	0	143	194	89	6	0
111	0	144	194	89	6	0
112	0	145	77	8	7	0
113	0	146	97	16	7	0
114	0	147	108	44	7	0
115	0	148	70	28	7	0
116	0	149	97	35	7	0
117	0	150	89	40	7	0
118	0	151	88	31	7	0
119	0	152	71	34	7	0
120	0	153	64	29	7	0
121	0	154	95	110	7	0
122	0	155	57	48	7	0
123	0	156	33	34	7	0
124	0	157	46	17	7	0
125	0	158	42	78	7	0
126	0	159	35	114	7	0
127	0	160	66	113	7	0
128	0	161	47	49	7	0
129	0	162	28	42	7	0
130	0	163	59	16	7	0
131	0	164	5	20	7	0
132	0	165	5	23	7	0
133	0	166	30	17	7	0
134	0	167	13	36	7	0
135	0	168	38	66	7	0
136	0	169	22	105	7	0
137	0	170	7	88	7	0
138	0	171	34	101	7	0
139	0	172	20	71	7	0
140	0	173	59	14	7	0
141	0	174	26	13	7	0
142	0	175	96	110	7	0
143	0	176	111	79	7	0
144	0	177	111	74	7	0
145	0	178	11	48	7	0
146	0	179	47	45	7	0
147	0	180	54	57	7	0
148	0	181	61	9	7	0

[WarpLst]	NpcsIdx	NSetIdx	TargetIdx	LV	Fee	Type
0	128	0	190	85	0	0
1	129	0	193	85	0	0
2	130	0	191	85	0	0
3	131	0	196	85	0	0
4	132	0	192	85	0	0
5	133	0	194	85	0	0
6	134	0	195	85	0	0
7	135	0	187	85	0	0
8	136	0	210	85	0	0
9	137	0	187	85	0	0
10	138	0	196	85	0	0
11	139	0	211	85	0	0
12	140	0	187	85	0	0
13	141	0	194	85	0	0
14	142	0	204	85	0	0
15	143	0	187	85	0	0
16	144	0	187	85	0	0

[SkillLst]	NSetIdx	NpcsIdx	SkillIdx	SkillLv	SkillBook
